p edge 170 169 76
e 1 123
e 1 102
e 2 14
e 3 97
e 4 20
e 4 45
e 5 66
e 5 153
e 5 164
e 6 19
e 6 50
e 7 26
e 8 58
e 9 46
e 9 158
e 10 130
e 10 119
e 10 111
e 11 25
e 12 143
e 12 44
e 13 24
e 14 147
e 15 40
e 15 90
e 15 33
e 16 144
e 17 157
e 17 168
e 17 98
e 18 109
e 19 160
e 20 120
e 21 150
e 22 117
e 22 37
e 22 76
e 22 156
e 23 52
e 23 94
e 24 38
e 25 163
e 25 34
e 26 49
e 26 30
e 26 169
e 26 33
e 27 78
e 27 142
e 27 34
e 28 64
e 29 31
e 29 45
e 29 55
e 30 129
e 32 160
e 33 34
e 34 96
e 34 152
e 35 90
e 36 147
e 36 49
e 37 125
e 38 124
e 38 91
e 39 135
e 39 73
e 39 61
e 40 149
e 41 61
e 42 151
e 43 121
e 43 95
e 43 73
e 44 86
e 44 50
e 44 100
e 45 83
e 45 131
e 45 71
e 46 72
e 47 114
e 47 126
e 48 149
e 50 152
e 51 142
e 52 79
e 53 77
e 53 137
e 54 91
e 54 95
e 55 101
e 56 145
e 56 126
e 57 82
e 57 139
e 57 95
e 58 123
e 59 90
e 60 87
e 61 118
e 62 164
e 62 90
e 63 65
e 63 146
e 63 111
e 64 133
e 66 101
e 67 73
e 68 114
e 69 138
e 70 144
e 71 92
e 71 134
e 72 113
e 72 74
e 72 100
e 73 138
e 74 132
e 74 136
e 75 155
e 76 98
e 77 112
e 79 106
e 79 158
e 80 137
e 80 98
e 81 102
e 84 157
e 85 110
e 87 147
e 88 116
e 89 107
e 89 90
e 90 126
e 91 127
e 93 146
e 94 170
e 97 105
e 99 133
e 99 161
e 99 166
e 99 102
e 100 116
e 100 167
e 102 169
e 103 151
e 104 165
e 104 119
e 105 156
e 105 106
e 106 115
e 106 151
e 108 148
e 109 163
e 110 119
e 111 122
e 111 158
e 118 136
e 125 141
e 128 162
e 128 144
e 129 148
e 140 142
e 144 164
e 150 151
e 154 165
e 155 166
e 159 162
